7
3
2
12
7
14
1
13
4
5
8
0
10
9
11
6
3
2
12
9
14
1
13
4
5
8
0
10
9
11
6
3
2
12
6
14
1
13
4
5
8
0
10
9
11
7
3
2
12
6
14
1
13
4
5
8
0
10
9
11
7
3
2
12
6
14
1
13
4
5
8
0
10
9
11
7
3
2
12
6
14
1
13
4
5
8
0
10
9
11
7
3
2
12
6
14
1
13
4
5
8
0
10
9
11
6
3
2
12
7
14
1
13
4
5
8
0
10
9
11
6
3
2
12
7
14
3
13
4
5
8
0
10
9
11
7
3
2
12
7
14
1
13
4
5
8
0
10
9
11
7
3
2
12
6
14
1
13
4
5
8
0
10
9
11
7
3
2
12
6
14
1
13
4
7
8
0
10
9
11
7
3
2
12
6
14
1
13
4
5
8
0
10
9
11
6
3
2
12
6
14
6
13
4
5
8
0
10
9
11
6
3
2
12
6
14
1
13
4
5
7
0
10
9
11
7
3
2
12
7
14
1
13
4
5
8
0
10
9
11
7
3
2
12
7
14
1
13
4
5
8
0
10
9
11
7
3
2
12
6
14
1
13
4
5
8
0
10
9
11
7
3
2
12
6
14
1
13
4
5
8
0
10
9
11
6
3
2
12
6
14
1
13
4
5
8
0
10
9
11
6
3
2
12
6
14
1
13
4
5
8
0
10
6
11
7
3
2
12
6
14
1
13
4
5
8
0
10
9
11
7
3
2
12
7
14
1
13
4
5
8
0
10
9
11
7
3
2
12
7
14
1
13
4
5
8
0
10
9
11
7
3
2
12
7
14
1
13
4
5
8
0
10
9
11
6
3
2
12
6
14
1
13
4
5
8
0
10
9
11
6
3
2
12
6
14
1
13
4
5
8
0
10
9
11
7
3
2
12
6
14
1
13
4
5
8
0
10
9
11
7
3
2
12
6
14
1
13
4
5
8
0
10
9
11
7
3
2
12
6
14
1
13
4
5
8
0
10
9
11
